coords = array2d(1..67, 1..2, [651, 650, 138, 444, 492, 20, 773, 501, 940, 374,
    58, 393, 791, 641, 406, 489, 648, 214, 482, 994, 423, 833, 386,
    725, 540, 334, 528, 457, 781, 473, 456, 141, 910, 690, 233, 477,
    452, 506, 453, 301, 541, 707, 26, 240, 614, 493, 369, 262, 530,
    418, 37, 880, 516, 808, 500, 883, 183, 767, 30, 421, 588, 726,
    301, 627, 918, 804, 523, 129, 795, 878, 155, 92, 473, 848, 776,
    291, 195, 694, 925, 913, 439, 832, 254, 698, 868, 59, 1000, 802,
    444, 534, 617, 195, 697, 463, 93, 74, 454, 106, 782, 601, 342,
    341, 774, 979, 134, 882, 652, 654, 9, 813, 356, 790, 146, 216,
    439, 880, 756, 742, 5, 4, 247, 871, 872, 710, 459, 692, 84, 774,
    418, 21, 435, 819, 251, 374]);

n = 67;

